70
1 0 1
2 0 1
2 1 1
3 0 1
3 1 1
3 2 1
4 1 1
4 2 1
4 3 1
5 1 1
5 2 1
5 3 1
6 0 1
6 2 1
6 3 1
6 4 1
6 5 1
7 0 1
7 2 1
7 4 1
8 3 1
9 1 1
9 4 1
9 6 1
9 7 1
9 8 1
10 1 1
10 2 1
10 3 1
10 4 1
10 5 1
10 6 1
10 8 1
10 9 1
11 2 1
11 5 1
11 6 1
11 7 1
11 9 1
12 0 1
12 2 1
12 3 1
12 5 1
12 8 1
12 10 1
13 1 1
13 3 1
13 4 1
13 6 1
13 7 1
13 8 1
13 9 1
13 10 1
14 2 1
14 4 1
14 8 1
14 12 1
14 13 1
15 0 1
15 1 1
15 6 1
15 7 1
15 9 1
15 10 1
15 11 1
15 13 1
15 14 1
16 0 1
16 1 1
16 3 1
16 5 1
16 8 1
16 13 1
16 14 1
17 2 1
17 3 1
17 6 1
17 7 1
17 8 1
17 10 1
17 12 1
18 1 1
18 2 1
18 4 1
18 5 1
18 7 1
18 11 1
18 15 1
18 16 1
19 2 1
19 3 1
19 6 1
19 7 1
19 12 1
19 13 1
19 15 1
20 2 1
20 6 1
20 7 1
20 8 1
20 9 1
20 11 1
20 13 1
20 14 1
20 15 1
20 17 1
20 19 1
21 0 1
21 1 1
21 3 1
21 4 1
21 6 1
21 7 1
21 9 1
21 11 1
21 14 1
21 15 1
21 19 1
21 20 1
22 2 1
22 3 1
22 5 1
22 6 1
22 7 1
22 8 1
22 9 1
22 13 1
22 15 1
22 18 1
22 19 1
22 21 1
23 0 1
23 2 1
23 5 1
23 6 1
23 7 1
23 8 1
23 9 1
23 11 1
23 12 1
23 16 1
23 17 1
23 19 1
23 20 1
23 21 1
24 0 1
24 1 1
24 6 1
24 8 1
24 11 1
24 12 1
24 16 1
24 17 1
24 19 1
24 22 1
25 0 1
25 2 1
25 3 1
25 4 1
25 5 1
25 7 1
25 8 1
25 10 1
25 11 1
25 13 1
25 15 1
25 16 1
25 18 1
25 19 1
25 20 1
25 24 1
26 1 1
26 2 1
26 3 1
26 4 1
26 5 1
26 13 1
26 15 1
26 18 1
26 19 1
26 22 1
26 23 1
26 24 1
26 25 1
27 0 1
27 5 1
27 12 1
27 14 1
27 15 1
27 17 1
27 21 1
27 22 1
27 26 1
28 1 1
28 2 1
28 3 1
28 4 1
28 5 1
28 6 1
28 7 1
28 9 1
28 10 1
28 11 1
28 14 1
28 16 1
28 18 1
28 25 1
28 26 1
29 1 1
29 2 1
29 3 1
29 5 1
29 9 1
29 10 1
29 16 1
29 17 1
29 18 1
29 20 1
29 21 1
29 24 1
29 25 1
29 27 1
30 0 1
30 1 1
30 5 1
30 7 1
30 13 1
30 14 1
30 16 1
30 19 1
30 20 1
30 21 1
30 22 1
30 23 1
30 26 1
30 27 1
30 29 1
31 0 1
31 1 1
31 2 1
31 4 1
31 6 1
31 10 1
31 13 1
31 15 1
31 17 1
31 20 1
31 23 1
31 24 1
31 25 1
31 26 1
31 29 1
31 30 1
32 0 1
32 4 1
32 8 1
32 11 1
32 16 1
32 17 1
32 20 1
32 22 1
32 23 1
32 27 1
32 28 1
33 0 1
33 2 1
33 3 1
33 4 1
33 6 1
33 7 1
33 10 1
33 12 1
33 13 1
33 14 1
33 19 1
33 20 1
33 24 1
33 25 1
33 28 1
33 29 1
34 1 1
34 2 1
34 3 1
34 4 1
34 9 1
34 13 1
34 14 1
34 16 1
34 19 1
34 20 1
34 24 1
34 26 1
34 30 1
34 31 1
34 33 1
35 0 1
35 1 1
35 3 1
35 4 1
35 9 1
35 12 1
35 13 1
35 17 1
35 19 1
35 20 1
35 23 1
35 26 1
35 28 1
35 29 1
35 31 1
35 32 1
35 33 1
36 0 1
36 2 1
36 4 1
36 5 1
36 8 1
36 9 1
36 12 1
36 13 1
36 16 1
36 18 1
36 19 1
36 20 1
36 21 1
36 23 1
36 24 1
36 26 1
36 29 1
36 31 1
36 33 1
36 34 1
36 35 1
37 1 1
37 3 1
37 4 1
37 6 1
37 7 1
37 8 1
37 10 1
37 14 1
37 19 1
37 22 1
37 23 1
37 28 1
37 33 1
37 34 1
37 35 1
38 1 1
38 3 1
38 4 1
38 5 1
38 6 1
38 7 1
38 8 1
38 9 1
38 10 1
38 11 1
38 13 1
38 14 1
38 15 1
38 16 1
38 17 1
38 19 1
38 24 1
38 26 1
38 28 1
38 30 1
38 33 1
38 35 1
38 36 1
38 37 1
39 2 1
39 4 1
39 8 1
39 13 1
39 14 1
39 15 1
39 17 1
39 22 1
39 24 1
39 27 1
39 28 1
39 30 1
39 33 1
39 34 1
39 36 1
40 0 1
40 3 1
40 4 1
40 5 1
40 7 1
40 8 1
40 11 1
40 12 1
40 13 1
40 14 1
40 15 1
40 17 1
40 21 1
40 22 1
40 23 1
40 26 1
40 27 1
40 28 1
40 29 1
40 31 1
40 32 1
40 33 1
40 36 1
40 37 1
40 38 1
41 0 1
41 3 1
41 4 1
41 5 1
41 7 1
41 8 1
41 10 1
41 11 1
41 15 1
41 20 1
41 21 1
41 23 1
41 29 1
41 31 1
41 32 1
41 33 1
41 34 1
41 36 1
41 37 1
41 38 1
41 39 1
42 2 1
42 8 1
42 9 1
42 10 1
42 11 1
42 13 1
42 17 1
42 18 1
42 19 1
42 21 1
42 22 1
42 24 1
42 29 1
42 30 1
42 32 1
42 33 1
42 34 1
42 35 1
42 36 1
42 40 1
43 0 1
43 1 1
43 2 1
43 3 1
43 7 1
43 8 1
43 10 1
43 11 1
43 13 1
43 14 1
43 15 1
43 16 1
43 17 1
43 18 1
43 20 1
43 21 1
43 22 1
43 23 1
43 27 1
43 28 1
43 31 1
43 33 1
43 34 1
43 37 1
43 38 1
43 39 1
43 40 1
44 1 1
44 9 1
44 10 1
44 13 1
44 14 1
44 16 1
44 20 1
44 22 1
44 24 1
44 25 1
44 26 1
44 28 1
44 29 1
44 32 1
44 33 1
44 34 1
44 36 1
44 37 1
44 38 1
44 40 1
44 42 1
45 0 1
45 1 1
45 2 1
45 4 1
45 5 1
45 10 1
45 12 1
45 15 1
45 19 1
45 22 1
45 23 1
45 24 1
45 25 1
45 28 1
45 31 1
45 33 1
45 34 1
45 35 1
45 36 1
45 38 1
45 40 1
45 41 1
46 0 1
46 2 1
46 4 1
46 6 1
46 7 1
46 8 1
46 9 1
46 15 1
46 16 1
46 18 1
46 19 1
46 20 1
46 22 1
46 23 1
46 25 1
46 26 1
46 29 1
46 33 1
46 38 1
46 39 1
46 40 1
46 41 1
46 42 1
46 43 1
46 44 1
46 45 1
47 0 1
47 1 1
47 2 1
47 3 1
47 4 1
47 5 1
47 7 1
47 9 1
47 11 1
47 13 1
47 15 1
47 17 1
47 19 1
47 21 1
47 22 1
47 23 1
47 24 1
47 28 1
47 30 1
47 32 1
47 33 1
47 35 1
47 36 1
47 37 1
47 39 1
47 40 1
47 43 1
47 45 1
48 0 1
48 3 1
48 4 1
48 5 1
48 20 1
48 22 1
48 28 1
48 29 1
48 31 1
48 33 1
48 35 1
48 40 1
48 41 1
48 42 1
48 43 1
48 46 1
49 3 1
49 4 1
49 5 1
49 6 1
49 7 1
49 8 1
49 11 1
49 12 1
49 13 1
49 20 1
49 22 1
49 23 1
49 24 1
49 25 1
49 30 1
49 33 1
49 37 1
49 38 1
49 39 1
49 41 1
49 47 1
50 0 1
50 1 1
50 3 1
50 4 1
50 5 1
50 6 1
50 7 1
50 8 1
50 9 1
50 13 1
50 14 1
50 15 1
50 17 1
50 18 1
50 19 1
50 25 1
50 26 1
50 28 1
50 29 1
50 30 1
50 31 1
50 32 1
50 38 1
50 39 1
50 40 1
50 43 1
50 45 1
50 46 1
50 47 1
50 48 1
51 1 1
51 2 1
51 4 1
51 5 1
51 6 1
51 8 1
51 19 1
51 21 1
51 23 1
51 25 1
51 26 1
51 29 1
51 30 1
51 31 1
51 33 1
51 36 1
51 40 1
51 44 1
51 47 1
51 48 1
51 49 1
52 0 1
52 2 1
52 3 1
52 6 1
52 8 1
52 10 1
52 13 1
52 16 1
52 17 1
52 19 1
52 21 1
52 24 1
52 25 1
52 26 1
52 28 1
52 29 1
52 30 1
52 32 1
52 34 1
52 36 1
52 38 1
52 39 1
52 41 1
52 42 1
52 45 1
52 49 1
53 1 1
53 5 1
53 8 1
53 9 1
53 11 1
53 12 1
53 13 1
53 14 1
53 16 1
53 18 1
53 27 1
53 28 1
53 30 1
53 33 1
53 34 1
53 35 1
53 36 1
53 37 1
53 38 1
53 39 1
53 42 1
53 43 1
53 45 1
53 46 1
53 47 1
53 49 1
53 50 1
53 51 1
53 52 1
54 6 1
54 9 1
54 10 1
54 11 1
54 12 1
54 14 1
54 15 1
54 19 1
54 20 1
54 21 1
54 24 1
54 28 1
54 29 1
54 30 1
54 31 1
54 36 1
54 37 1
54 39 1
54 40 1
54 47 1
54 49 1
54 50 1
54 52 1
54 53 1
55 0 1
55 1 1
55 4 1
55 8 1
55 9 1
55 11 1
55 12 1
55 13 1
55 14 1
55 17 1
55 19 1
55 20 1
55 22 1
55 24 1
55 25 1
55 28 1
55 29 1
55 30 1
55 31 1
55 34 1
55 38 1
55 40 1
55 46 1
55 47 1
55 48 1
55 49 1
55 50 1
55 51 1
55 53 1
56 0 1
56 1 1
56 4 1
56 6 1
56 7 1
56 8 1
56 10 1
56 13 1
56 15 1
56 16 1
56 17 1
56 19 1
56 20 1
56 21 1
56 22 1
56 23 1
56 25 1
56 29 1
56 32 1
56 33 1
56 34 1
56 35 1
56 36 1
56 38 1
56 39 1
56 40 1
56 41 1
56 45 1
56 46 1
56 48 1
56 49 1
56 50 1
56 51 1
56 52 1
56 54 1
56 55 1
57 0 1
57 3 1
57 4 1
57 6 1
57 7 1
57 9 1
57 10 1
57 11 1
57 12 1
57 16 1
57 19 1
57 21 1
57 25 1
57 27 1
57 28 1
57 29 1
57 33 1
57 35 1
57 37 1
57 38 1
57 39 1
57 40 1
57 43 1
57 45 1
57 46 1
57 49 1
57 50 1
57 52 1
57 53 1
57 54 1
58 1 1
58 2 1
58 3 1
58 4 1
58 5 1
58 6 1
58 7 1
58 8 1
58 10 1
58 12 1
58 13 1
58 16 1
58 18 1
58 20 1
58 27 1
58 31 1
58 36 1
58 39 1
58 41 1
58 42 1
58 46 1
58 48 1
58 49 1
58 50 1
58 54 1
58 55 1
58 57 1
59 5 1
59 6 1
59 7 1
59 9 1
59 12 1
59 13 1
59 15 1
59 17 1
59 18 1
59 19 1
59 21 1
59 23 1
59 26 1
59 27 1
59 32 1
59 33 1
59 35 1
59 39 1
59 40 1
59 41 1
59 48 1
59 49 1
59 50 1
59 52 1
59 56 1
59 57 1
60 2 1
60 5 1
60 6 1
60 8 1
60 9 1
60 11 1
60 12 1
60 15 1
60 17 1
60 19 1
60 22 1
60 23 1
60 24 1
60 25 1
60 26 1
60 30 1
60 31 1
60 32 1
60 33 1
60 37 1
60 38 1
60 41 1
60 42 1
60 43 1
60 44 1
60 46 1
60 47 1
60 49 1
60 51 1
60 52 1
60 53 1
60 57 1
61 0 1
61 6 1
61 7 1
61 10 1
61 11 1
61 12 1
61 13 1
61 14 1
61 17 1
61 18 1
61 21 1
61 23 1
61 24 1
61 25 1
61 35 1
61 36 1
61 38 1
61 39 1
61 42 1
61 43 1
61 44 1
61 46 1
61 48 1
61 50 1
61 51 1
61 52 1
61 56 1
61 58 1
61 59 1
61 60 1
62 2 1
62 4 1
62 7 1
62 8 1
62 10 1
62 13 1
62 16 1
62 18 1
62 19 1
62 22 1
62 24 1
62 27 1
62 29 1
62 30 1
62 31 1
62 33 1
62 36 1
62 37 1
62 38 1
62 40 1
62 41 1
62 43 1
62 44 1
62 54 1
62 55 1
62 59 1
62 60 1
62 61 1
63 9 1
63 12 1
63 13 1
63 16 1
63 23 1
63 24 1
63 27 1
63 28 1
63 30 1
63 32 1
63 34 1
63 37 1
63 38 1
63 40 1
63 41 1
63 43 1
63 47 1
63 48 1
63 49 1
63 51 1
63 52 1
63 54 1
63 55 1
63 56 1
63 58 1
63 59 1
63 61 1
63 62 1
64 0 1
64 1 1
64 2 1
64 3 1
64 6 1
64 9 1
64 15 1
64 16 1
64 17 1
64 18 1
64 19 1
64 23 1
64 31 1
64 35 1
64 36 1
64 37 1
64 40 1
64 41 1
64 43 1
64 48 1
64 50 1
64 51 1
64 52 1
64 53 1
64 54 1
64 56 1
64 57 1
64 58 1
64 59 1
64 61 1
64 63 1
65 1 1
65 5 1
65 6 1
65 7 1
65 16 1
65 18 1
65 19 1
65 20 1
65 21 1
65 22 1
65 23 1
65 25 1
65 27 1
65 28 1
65 34 1
65 37 1
65 38 1
65 40 1
65 43 1
65 45 1
65 49 1
65 50 1
65 52 1
65 53 1
65 57 1
65 59 1
65 63 1
66 1 1
66 3 1
66 6 1
66 7 1
66 9 1
66 10 1
66 13 1
66 14 1
66 16 1
66 18 1
66 21 1
66 23 1
66 24 1
66 25 1
66 28 1
66 31 1
66 32 1
66 33 1
66 35 1
66 38 1
66 40 1
66 41 1
66 42 1
66 43 1
66 44 1
66 46 1
66 47 1
66 51 1
66 52 1
66 56 1
66 59 1
66 61 1
66 63 1
66 64 1
67 0 1
67 2 1
67 3 1
67 6 1
67 7 1
67 8 1
67 10 1
67 11 1
67 13 1
67 15 1
67 20 1
67 22 1
67 23 1
67 24 1
67 25 1
67 26 1
67 28 1
67 29 1
67 32 1
67 33 1
67 34 1
67 36 1
67 37 1
67 38 1
67 41 1
67 45 1
67 46 1
67 48 1
67 49 1
67 50 1
67 51 1
67 52 1
67 53 1
67 54 1
67 59 1
67 63 1
67 65 1
67 66 1
68 0 1
68 3 1
68 4 1
68 5 1
68 8 1
68 10 1
68 11 1
68 14 1
68 15 1
68 16 1
68 17 1
68 18 1
68 20 1
68 22 1
68 23 1
68 24 1
68 26 1
68 27 1
68 28 1
68 30 1
68 31 1
68 34 1
68 37 1
68 40 1
68 41 1
68 42 1
68 43 1
68 45 1
68 48 1
68 50 1
68 52 1
68 54 1
68 57 1
68 59 1
68 62 1
68 63 1
68 64 1
68 66 1
69 0 1
69 4 1
69 7 1
69 8 1
69 9 1
69 10 1
69 14 1
69 15 1
69 16 1
69 18 1
69 20 1
69 22 1
69 23 1
69 26 1
69 27 1
69 29 1
69 30 1
69 31 1
69 32 1
69 34 1
69 36 1
69 37 1
69 38 1
69 42 1
69 48 1
69 51 1
69 53 1
69 56 1
69 57 1
69 58 1
69 59 1
69 61 1
69 62 1
69 64 1
69 65 1
69 66 1
69 67 1
